<instance format="XCSP3" type="CSP">
  <variables>
    <array id="x" note="x[i][j] is the index of the piece at row i and column j" size="[8][7]"> 0..55 </array>
    <array id="t" note="t[i][j] is the value at the top of the piece at row i and column j" size="[9][7]"> 0..10 </array>
    <array id="l" note="l[i][j] is the value at the left of the piece at row i and column j" size="[8][8]"> 0..10 </array>
  </variables>
  <constraints>
    <allDifferent note="all pieces must be placed (only once)"> x[][] </allDifferent>
    <group note="all pieces must be valid (i.e., must correspond to those given initially, possibly after applying some rotation)">
      <extension>
        <list> %... </list>
        <supports> (0,0,0,1,1)(0,0,1,1,0)(0,1,0,0,1)(0,1,1,0,0)(1,0,0,2,1)(1,0,2,1,0)(1,1,0,0,2)(1,2,1,0,0)(2,0,0,3,1)(2,0,3,1,0)(2,1,0,0,3)(2,3,1,0,0)(3,0,0,3,2)(3,0,3,2,0)(3,2,0,0,3)(3,3,2,0,0)(4,0,1,4,3)(4,1,4,3,0)(4,3,0,1,4)(4,4,3,0,1)(5,0,1,5,2)(5,1,5,2,0)(5,2,0,1,5)(5,5,2,0,1)(6,0,1,6,1)(6,1,0,1,6)(6,1,6,1,0)(6,6,1,0,1)(7,0,1,7,3)(7,1,7,3,0)(7,3,0,1,7)(7,7,3,0,1)(8,0,1,8,2)(8,1,8,2,0)(8,2,0,1,8)(8,8,2,0,1)(9,0,1,9,2)(9,1,9,2,0)(9,2,0,1,9)(9,9,2,0,1)(10,0,1,9,3)(10,1,9,3,0)(10,3,0,1,9)(10,9,3,0,1)(11,0,1,10,2)(11,1,10,2,0)(11,2,0,1,10)(11,10,2,0,1)(12,0,2,4,3)(12,2,4,3,0)(12,3,0,2,4)(12,4,3,0,2)(13,0,2,5,1)(13,1,0,2,5)(13,2,5,1,0)(13,5,1,0,2)(14,0,2,6,3)(14,2,6,3,0)(14,3,0,2,6)(14,6,3,0,2)(15,0,2,7,2)(15,2,0,2,7)(15,2,7,2,0)(15,7,2,0,2)(16,0,2,8,3)(16,2,8,3,0)(16,3,0,2,8)(16,8,3,0,2)(17,0,2,9,1)(17,1,0,2,9)(17,2,9,1,0)(17,9,1,0,2)(18,0,2,10,1)(18,1,0,2,10)(18,2,10,1,0)(18,10,1,0,2)(19,0,2,10,3)(19,2,10,3,0)(19,3,0,2,10)(19,10,3,0,2)(20,0,3,4,1)(20,1,0,3,4)(20,3,4,1,0)(20,4,1,0,3)(21,0,3,4,2)(21,2,0,3,4)(21,3,4,2,0)(21,4,2,0,3)(22,0,3,5,3)(22,3,0,3,5)(22,3,5,3,0)(22,5,3,0,3)(23,0,3,6,1)(23,1,0,3,6)(23,3,6,1,0)(23,6,1,0,3)(24,0,3,8,2)(24,2,0,3,8)(24,3,8,2,0)(24,8,2,0,3)(25,0,3,9,2)(25,2,0,3,9)(25,3,9,2,0)(25,9,2,0,3)(26,4,4,7,7)(26,4,7,7,4)(26,7,4,4,7)(26,7,7,4,4)(27,4,4,10,6)(27,4,10,6,4)(27,6,4,4,10)(27,10,6,4,4)(28,4,5,7,10)(28,5,7,10,4)(28,7,10,4,5)(28,10,4,5,7)(29,4,6,4,8)(29,4,8,4,6)(29,6,4,8,4)(29,8,4,6,4)(30,4,6,7,6)(30,6,4,6,7)(30,6,7,6,4)(30,7,6,4,6)(31,4,6,7,10)(31,6,7,10,4)(31,7,10,4,6)(31,10,4,6,7)(32,4,6,9,6)(32,6,4,6,9)(32,6,9,6,4)(32,9,6,4,6)(33,4,7,8,9)(33,7,8,9,4)(33,8,9,4,7)(33,9,4,7,8)(34,4,8,4,10)(34,4,10,4,8)(34,8,4,10,4)(34,10,4,8,4)(35,4,8,7,10)(35,7,10,4,8)(35,8,7,10,4)(35,10,4,8,7)(36,4,9,8,7)(36,7,4,9,8)(36,8,7,4,9)(36,9,8,7,4)(37,4,9,9,5)(37,5,4,9,9)(37,9,5,4,9)(37,9,9,5,4)(38,4,9,10,6)(38,6,4,9,10)(38,9,10,6,4)(38,10,6,4,9)(39,4,10,8,7)(39,7,4,10,8)(39,8,7,4,10)(39,10,8,7,4)(40,5,5,5,8)(40,5,5,8,5)(40,5,8,5,5)(40,8,5,5,5)(41,5,5,5,10)(41,5,5,10,5)(41,5,10,5,5)(41,10,5,5,5)(42,5,5,8,10)(42,5,8,10,5)(42,8,10,5,5)(42,10,5,5,8)(43,5,6,7,8)(43,6,7,8,5)(43,7,8,5,6)(43,8,5,6,7)(44,5,6,10,8)(44,6,10,8,5)(44,8,5,6,10)(44,10,8,5,6)(45,5,7,6,10)(45,6,10,5,7)(45,7,6,10,5)(45,10,5,7,6)(46,5,7,9,6)(46,6,5,7,9)(46,7,9,6,5)(46,9,6,5,7)(47,5,7,9,7)(47,7,5,7,9)(47,7,9,7,5)(47,9,7,5,7)(48,5,10,8,6)(48,6,5,10,8)(48,8,6,5,10)(48,10,8,6,5)(49,5,10,8,8)(49,8,5,10,8)(49,8,8,5,10)(49,10,8,8,5)(50,6,6,7,8)(50,6,7,8,6)(50,7,8,6,6)(50,8,6,6,7)(51,6,9,8,10)(51,8,10,6,9)(51,9,8,10,6)(51,10,6,9,8)(52,6,10,9,8)(52,8,6,10,9)(52,9,8,6,10)(52,10,9,8,6)(53,7,7,9,10)(53,7,9,10,7)(53,9,10,7,7)(53,10,7,7,9)(54,7,9,9,9)(54,9,7,9,9)(54,9,9,7,9)(54,9,9,9,7)(55,8,9,10,9)(55,9,8,9,10)(55,9,10,9,8)(55,10,9,8,9) </supports>
      </extension>
      <args> x[0][0] t[0][0] l[0][1] t[1][0] l[0][0] </args>
      <args> x[0][1] t[0][1] l[0][2] t[1][1] l[0][1] </args>
      <args> x[0][2] t[0][2] l[0][3] t[1][2] l[0][2] </args>
      <args> x[0][3] t[0][3] l[0][4] t[1][3] l[0][3] </args>
      <args> x[0][4] t[0][4] l[0][5] t[1][4] l[0][4] </args>
      <args> x[0][5] t[0][5] l[0][6] t[1][5] l[0][5] </args>
      <args> x[0][6] t[0][6] l[0][7] t[1][6] l[0][6] </args>
      <args> x[1][0] t[1][0] l[1][1] t[2][0] l[1][0] </args>
      <args> x[1][1] t[1][1] l[1][2] t[2][1] l[1][1] </args>
      <args> x[1][2] t[1][2] l[1][3] t[2][2] l[1][2] </args>
      <args> x[1][3] t[1][3] l[1][4] t[2][3] l[1][3] </args>
      <args> x[1][4] t[1][4] l[1][5] t[2][4] l[1][4] </args>
      <args> x[1][5] t[1][5] l[1][6] t[2][5] l[1][5] </args>
      <args> x[1][6] t[1][6] l[1][7] t[2][6] l[1][6] </args>
      <args> x[2][0] t[2][0] l[2][1] t[3][0] l[2][0] </args>
      <args> x[2][1] t[2][1] l[2][2] t[3][1] l[2][1] </args>
      <args> x[2][2] t[2][2] l[2][3] t[3][2] l[2][2] </args>
      <args> x[2][3] t[2][3] l[2][4] t[3][3] l[2][3] </args>
      <args> x[2][4] t[2][4] l[2][5] t[3][4] l[2][4] </args>
      <args> x[2][5] t[2][5] l[2][6] t[3][5] l[2][5] </args>
      <args> x[2][6] t[2][6] l[2][7] t[3][6] l[2][6] </args>
      <args> x[3][0] t[3][0] l[3][1] t[4][0] l[3][0] </args>
      <args> x[3][1] t[3][1] l[3][2] t[4][1] l[3][1] </args>
      <args> x[3][2] t[3][2] l[3][3] t[4][2] l[3][2] </args>
      <args> x[3][3] t[3][3] l[3][4] t[4][3] l[3][3] </args>
      <args> x[3][4] t[3][4] l[3][5] t[4][4] l[3][4] </args>
      <args> x[3][5] t[3][5] l[3][6] t[4][5] l[3][5] </args>
      <args> x[3][6] t[3][6] l[3][7] t[4][6] l[3][6] </args>
      <args> x[4][0] t[4][0] l[4][1] t[5][0] l[4][0] </args>
      <args> x[4][1] t[4][1] l[4][2] t[5][1] l[4][1] </args>
      <args> x[4][2] t[4][2] l[4][3] t[5][2] l[4][2] </args>
      <args> x[4][3] t[4][3] l[4][4] t[5][3] l[4][3] </args>
      <args> x[4][4] t[4][4] l[4][5] t[5][4] l[4][4] </args>
      <args> x[4][5] t[4][5] l[4][6] t[5][5] l[4][5] </args>
      <args> x[4][6] t[4][6] l[4][7] t[5][6] l[4][6] </args>
      <args> x[5][0] t[5][0] l[5][1] t[6][0] l[5][0] </args>
      <args> x[5][1] t[5][1] l[5][2] t[6][1] l[5][1] </args>
      <args> x[5][2] t[5][2] l[5][3] t[6][2] l[5][2] </args>
      <args> x[5][3] t[5][3] l[5][4] t[6][3] l[5][3] </args>
      <args> x[5][4] t[5][4] l[5][5] t[6][4] l[5][4] </args>
      <args> x[5][5] t[5][5] l[5][6] t[6][5] l[5][5] </args>
      <args> x[5][6] t[5][6] l[5][7] t[6][6] l[5][6] </args>
      <args> x[6][0] t[6][0] l[6][1] t[7][0] l[6][0] </args>
      <args> x[6][1] t[6][1] l[6][2] t[7][1] l[6][1] </args>
      <args> x[6][2] t[6][2] l[6][3] t[7][2] l[6][2] </args>
      <args> x[6][3] t[6][3] l[6][4] t[7][3] l[6][3] </args>
      <args> x[6][4] t[6][4] l[6][5] t[7][4] l[6][4] </args>
      <args> x[6][5] t[6][5] l[6][6] t[7][5] l[6][5] </args>
      <args> x[6][6] t[6][6] l[6][7] t[7][6] l[6][6] </args>
      <args> x[7][0] t[7][0] l[7][1] t[8][0] l[7][0] </args>
      <args> x[7][1] t[7][1] l[7][2] t[8][1] l[7][1] </args>
      <args> x[7][2] t[7][2] l[7][3] t[8][2] l[7][2] </args>
      <args> x[7][3] t[7][3] l[7][4] t[8][3] l[7][3] </args>
      <args> x[7][4] t[7][4] l[7][5] t[8][4] l[7][4] </args>
      <args> x[7][5] t[7][5] l[7][6] t[8][5] l[7][5] </args>
      <args> x[7][6] t[7][6] l[7][7] t[8][6] l[7][6] </args>
    </group>
    <group note="putting special value 0 on borders">
      <intension> eq(%0,0) </intension>
      <args> t[0][0] </args>
      <args> t[0][1] </args>
      <args> t[0][2] </args>
      <args> t[0][3] </args>
      <args> t[0][4] </args>
      <args> t[0][5] </args>
      <args> t[0][6] </args>
      <args> l[0][7] </args>
      <args> l[1][7] </args>
      <args> l[2][7] </args>
      <args> l[3][7] </args>
      <args> l[4][7] </args>
      <args> l[5][7] </args>
      <args> l[6][7] </args>
      <args> l[7][7] </args>
      <args> t[8][0] </args>
      <args> t[8][1] </args>
      <args> t[8][2] </args>
      <args> t[8][3] </args>
      <args> t[8][4] </args>
      <args> t[8][5] </args>
      <args> t[8][6] </args>
      <args> l[0][0] </args>
      <args> l[1][0] </args>
      <args> l[2][0] </args>
      <args> l[3][0] </args>
      <args> l[4][0] </args>
      <args> l[5][0] </args>
      <args> l[6][0] </args>
      <args> l[7][0] </args>
    </group>
  </constraints>
</instance>
